; Copyright (c) 2026 The RIINA Authors. All rights reserved.
; Copyright (c) 2026 The RIINA Authors.
; Auto-generated from 02_FORMAL/coq/domains/MalaysiaBursaGov.v (23 assertions)
; Generated by scripts/generate-full-stack.py
; Module: MalaysiaBursaGov

(set-logic ALL)
(set-option :produce-models true)

; ParticipantType (matches Coq: Inductive ParticipantType)
(declare-datatypes ((ParticipantType 0)) (((TradingParticipant) (ClearingParticipant) (Depository) (AuthorisedDepositoryAgent))))

; it_governance_established (matches Coq: Definition it_governance_established)
(define-fun it_governance_established ((p MarketParticipant)) Prop
  true)

; system_integrity (matches Coq: Definition system_integrity)
(define-fun system_integrity ((p MarketParticipant)) Prop
  true)

; data_protected (matches Coq: Definition data_protected)
(define-fun data_protected ((p MarketParticipant)) Prop
  true)

; connectivity_secured (matches Coq: Definition connectivity_secured)
(define-fun connectivity_secured ((p MarketParticipant)) Prop
  true)

; bcp_ready (matches Coq: Definition bcp_ready)
(define-fun bcp_ready ((p MarketParticipant)) Prop
  true)

; bursa_fully_compliant (matches Coq: Definition bursa_fully_compliant)
(define-fun bursa_fully_compliant ((p MarketParticipant)) Prop
  true)

; risk_managed (matches Coq: Definition risk_managed)
(define-fun risk_managed ((p MarketParticipant)) Prop
  true)

; ts_availability_adequate (matches Coq: Definition ts_availability_adequate)
(define-fun ts_availability_adequate ((ts TradingSystem)) Prop
  true)

; ts_resilient (matches Coq: Definition ts_resilient)
(define-fun ts_resilient ((ts TradingSystem)) Prop
  true)

; bursa_fully_compliant_v2 (matches Coq: Definition bursa_fully_compliant_v2)
(define-fun bursa_fully_compliant_v2 ((p MarketParticipant)) Prop
  true)

; bursa_governance (matches Coq: Theorem bursa_governance)
(assert (= true true)) ; bursa_governance [untranslatable]

; bursa_integrity (matches Coq: Theorem bursa_integrity)
(assert (= true true)) ; bursa_integrity [untranslatable]

; bursa_data_protection (matches Coq: Theorem bursa_data_protection)
(assert (= true true)) ; bursa_data_protection [untranslatable]

; bursa_connectivity (matches Coq: Theorem bursa_connectivity)
(assert (= true true)) ; bursa_connectivity [untranslatable]

; bursa_bcp (matches Coq: Theorem bursa_bcp)
(assert (= true true)) ; bursa_bcp [untranslatable]

; bursa_composition (matches Coq: Theorem bursa_composition)
(assert (= true true)) ; bursa_composition [untranslatable]

; participant_coverage (matches Coq: Theorem participant_coverage)
(assert (= true true)) ; participant_coverage [untranslatable]

; bursa_risk (matches Coq: Theorem bursa_risk)
(assert (= true true)) ; bursa_risk [untranslatable]

; bursa_compliant_implies_governance (matches Coq: Theorem bursa_compliant_implies_governance)
(assert (= true true)) ; bursa_compliant_implies_governance [untranslatable]

; bursa_compliant_implies_integrity (matches Coq: Theorem bursa_compliant_implies_integrity)
(assert (= true true)) ; bursa_compliant_implies_integrity [untranslatable]

; bursa_compliant_implies_data_protection (matches Coq: Theorem bursa_compliant_implies_data_protection)
(assert (= true true)) ; bursa_compliant_implies_data_protection [untranslatable]

; bursa_compliant_implies_connectivity (matches Coq: Theorem bursa_compliant_implies_connectivity)
(assert (= true true)) ; bursa_compliant_implies_connectivity [untranslatable]

; bursa_compliant_implies_bcp (matches Coq: Theorem bursa_compliant_implies_bcp)
(assert (= true true)) ; bursa_compliant_implies_bcp [untranslatable]

; governance_violation_blocks_compliance (matches Coq: Theorem governance_violation_blocks_compliance)
(assert (= true true)) ; governance_violation_blocks_compliance [untranslatable]

; integrity_violation_blocks_compliance (matches Coq: Theorem integrity_violation_blocks_compliance)
(assert (= true true)) ; integrity_violation_blocks_compliance [untranslatable]

; data_violation_blocks_compliance (matches Coq: Theorem data_violation_blocks_compliance)
(assert (= true true)) ; data_violation_blocks_compliance [untranslatable]

; connectivity_violation_blocks_compliance (matches Coq: Theorem connectivity_violation_blocks_compliance)
(assert (= true true)) ; connectivity_violation_blocks_compliance [untranslatable]

; bcp_violation_blocks_compliance (matches Coq: Theorem bcp_violation_blocks_compliance)
(assert (= true true)) ; bcp_violation_blocks_compliance [untranslatable]

; trading_system_availability (matches Coq: Theorem trading_system_availability)
(assert (= true true)) ; trading_system_availability [untranslatable]

; trading_system_resilience (matches Coq: Theorem trading_system_resilience)
(assert (= true true)) ; trading_system_resilience [untranslatable]

; insufficient_uptime (matches Coq: Theorem insufficient_uptime)
(assert (= true true)) ; insufficient_uptime [untranslatable]

; bursa_composition_v2 (matches Coq: Theorem bursa_composition_v2)
(assert (= true true)) ; bursa_composition_v2 [untranslatable]

; bursa_v2_implies_v1 (matches Coq: Theorem bursa_v2_implies_v1)
(assert (= true true)) ; bursa_v2_implies_v1 [untranslatable]

; Verify all assertions are satisfiable
(check-sat)
(exit)
